start = [N, C, O, P, H, K, V, O, N, V, P, N, S, K, S, H, B, N, P, F];

rule_list = [|
   O, N, C
 | C, K, H
 | H, C, B
 | N, P, S
 | N, H, H
 | C, B, C
 | B, B, H
 | B, C, H
 | N, N, C
 | O, H, B
 | S, F, V
 | P, B, H
 | C, P, P
 | B, N, O
 | N, B, B
 | K, B, P
 | P, V, F
 | S, H, V
 | K, P, S
 | O, F, K
 | B, S, V
 | P, F, O
 | B, K, S
 | F, B, B
 | S, V, B
 | B, H, V
 | V, K, N
 | C, S, V
 | F, V, F
 | H, S, C
 | K, K, O
 | S, P, N
 | F, K, B
 | C, F, C
 | H, P, F
 | B, F, O
 | K, C, C
 | V, P, O
 | B, P, P
 | F, F, V
 | N, O, C
 | H, K, C
 | H, V, B
 | P, K, P
 | O, V, F
 | V, N, H
 | P, C, K
 | S, B, H
 | V, O, V
 | B, V, K
 | N, C, H
 | O, B, S
 | S, N, B
 | H, F, P
 | V, F, B
 | H, N, H
 | K, S, S
 | S, C, S
 | C, V, B
 | N, S, P
 | K, O, V
 | F, S, O
 | P, H, K
 | B, O, C
 | F, H, B
 | C, O, O
 | F, O, F
 | V, V, N
 | C, H, V
 | N, K, N
 | P, O, K
 | O, K, K
 | P, P, O
 | O, C, P
 | F, C, N
 | V, H, S
 | P, N, C
 | V, B, C
 | V, S, P
 | H, O, F
 | O, P, S
 | H, B, N
 | C, C, K
 | K, N, S
 | S, K, C
 | O, S, N
 | K, H, B
 | F, P, S
 | N, F, S
 | C, N, S
 | K, F, C
 | S, S, C
 | S, O, S
 | N, V, O
 | F, N, B
 | P, S, S
 | H, H, C
 | V, C, S
 | O, O, C
 | K, V, P
|];
